peakDumbCharging = 18500; 
Machine = anon_enum(16); 
machineSpeed = [3700,3700,3700,3700,3700,3700,3700,3700,3700,3700,3700,3700,3700,3700,3700,3700]; 
machineLoad = [3700,3700,3700,3700,3700,3700,3700,3700,3700,3700,3700,3700,3700,3700,3700,3700]; 
Car = anon_enum(17); 
demandCar = [3840,12040,4040,6720,7240,4400,8800,10520,5160,33640,3120,12400,4480,13560,6440,3280,34440]; 
arrivalCar = [64,50,50,49,46,45,44,42,41,40,39,38,38,36,33,31,21]; 
departureCar = [67,55,53,54,52,48,48,48,45,54,42,44,41,45,40,33,43]; 
